1
4,20,80,93,96,113,146
11,105,110,144
7
8
57,153
13
17
16
21
22
76,89
27
84,134
10,107,166
49,51,142
36
37
2
3,29,50,60,62,82,102,116,119,123,127,162,182
17,101
47
33,41
66,81,136
147
169,181
54
77,89
53,140
57
61
63
9,139,163,175
67
69
12,45,55,56,124
20,32,80,96,106,113
73
75
174
52,178
76
5,14,23,85,125,126
79
4,20,80,96,106,113,146
155,168
13,86
108,176
86
88
99,121
90
36,100
15,31,35,78,91,92,128,150,151
97
44,115,135
114,170
11,144,173,177
101
65,145
6,83
109
30,70
18,24,34,58,87,122
26,137
120
121
7,22,90,97,158,160
4,20,80,96,113,146,167
42,88
11,94,105,144
20,80,96,104,106,113
137
71,103
0,19,25,28,38,43,46,59,60,68,72,74,102,116,129,130,131,141,143,148,149,152,156
48,64,98,111,117,118,132,138,154
153
180
11,105,144,177
157
39,112
159
160
161
158
164
165
168
171
22,97,160
172
133
40,95
179
